row=10;
column=10;
Board=[|4,3,3,3,2,2,2,5,8,8|2,3,3,7,5,4,2,4,4,3|3,2,2,2,8,7,5,6,5,6|2,2,2,3,5,8,5,6,5,7|3,2,2,2,7,6,6,6,5,4|8,5,8,2,1,1,1,4,4,4|5,6,5,7,1,1,1,4,4,4|4,5,5,6,5,4,4,1,1,1|4,7,8,3,3,3,7,1,1,1|3,8,7,6,3,3,5,1,1,1|];
right = [21,6,15,14,2,15,7,6,0,0];
bottom = [16,5,2,20,10,2,12,0,12,7];
